BAYES
400
2 2 2 2 2 2 2 2 2 2 2 2 2 2 2 2 2 2 2 2 2 2 2 2 2 2 2 2 2 2 2 2 2 2 2 2 2 2 2 2 2 2 2 2 2 2 2 2 2 2 2 2 2 2 2 2 2 2 2 2 2 2 2 2 2 2 2 2 2 2 2 2 2 2 2 2 2 2 2 2 2 2 2 2 2 2 2 2 2 2 2 2 2 2 2 2 2 2 2 2 2 2 2 2 2 2 2 2 2 2 2 2 2 2 2 2 2 2 2 2 2 2 2 2 2 2 2 2 2 2 2 2 2 2 2 2 2 2 2 2 2 2 2 2 2 2 2 2 2 2 2 2 2 2 2 2 2 2 2 2 2 2 2 2 2 2 2 2 2 2 2 2 2 2 2 2 2 2 2 2 2 2 2 2 2 2 2 2 2 2 2 2 2 2 2 2 2 2 2 2 2 2 2 2 2 2 2 2 2 2 2 2 2 2 2 2 2 2 2 2 2 2 2 2 2 2 2 2 2 2 2 2 2 2 2 2 2 2 2 2 2 2 2 2 2 2 2 2 2 2 2 2 2 2 2 2 2 2 2 2 2 2 2 2 2 2 2 2 2 2 2 2 2 2 2 2 2 2 2 2 2 2 2 2 2 2 2 2 2 2 2 2 2 2 2 2 2 2 2 2 2 2 2 2 2 2 2 2 2 2 2 2 2 2 2 2 2 2 2 2 2 2 2 2 2 2 2 2 2 2 2 2 2 2 2 2 2 2 2 2 2 2 2 2 2 2 2 2 2 2 2 2 2 2 2 2 2 2 2 2 2 2 2 2 2 2 2 2 2 2 2 2 2 2 2 2 2 2 2 2 2 2 2 2 2 2 2 2 2 2 2 2 2 2 2 2 2 2 2 2
400
3 1 20 0
3 2 21 1
3 3 22 2
3 4 23 3
3 5 24 4
3 6 25 5
3 7 26 6
3 8 27 7
3 9 28 8
3 10 29 9
3 11 30 10
3 12 31 11
3 13 32 12
3 14 33 13
3 15 34 14
3 16 35 15
3 17 36 16
3 18 37 17
3 19 38 18
2 20 19
3 21 40 20
3 22 41 21
3 23 42 22
3 24 43 23
3 25 44 24
3 26 45 25
3 27 46 26
3 28 47 27
3 29 48 28
3 30 49 29
3 31 50 30
3 32 51 31
3 33 52 32
3 34 53 33
3 35 54 34
3 36 55 35
3 37 56 36
3 38 57 37
3 39 58 38
2 40 39
3 41 60 40
3 42 61 41
3 43 62 42
3 44 63 43
3 45 64 44
3 46 65 45
3 47 66 46
3 48 67 47
3 49 68 48
3 50 69 49
3 51 70 50
3 52 71 51
3 53 72 52
3 54 73 53
3 55 74 54
3 56 75 55
3 57 76 56
3 58 77 57
3 59 78 58
2 60 59
3 61 80 60
3 62 81 61
3 63 82 62
3 64 83 63
3 65 84 64
3 66 85 65
3 67 86 66
3 68 87 67
3 69 88 68
3 70 89 69
3 71 90 70
3 72 91 71
3 73 92 72
3 74 93 73
3 75 94 74
3 76 95 75
3 77 96 76
3 78 97 77
3 79 98 78
2 80 79
3 81 100 80
3 82 101 81
3 83 102 82
3 84 103 83
3 85 104 84
3 86 105 85
3 87 106 86
3 88 107 87
3 89 108 88
3 90 109 89
3 91 110 90
3 92 111 91
3 93 112 92
3 94 113 93
3 95 114 94
3 96 115 95
3 97 116 96
3 98 117 97
3 99 118 98
2 100 99
3 101 120 100
3 102 121 101
3 103 122 102
3 104 123 103
3 105 124 104
3 106 125 105
3 107 126 106
3 108 127 107
3 109 128 108
3 110 129 109
3 111 130 110
3 112 131 111
3 113 132 112
3 114 133 113
3 115 134 114
3 116 135 115
3 117 136 116
3 118 137 117
3 119 138 118
2 120 119
3 121 140 120
3 122 141 121
3 123 142 122
3 124 143 123
3 125 144 124
3 126 145 125
3 127 146 126
3 128 147 127
3 129 148 128
3 130 149 129
3 131 150 130
3 132 151 131
3 133 152 132
3 134 153 133
3 135 154 134
3 136 155 135
3 137 156 136
3 138 157 137
3 139 158 138
2 140 139
3 141 160 140
3 142 161 141
3 143 162 142
3 144 163 143
3 145 164 144
3 146 165 145
3 147 166 146
3 148 167 147
3 149 168 148
3 150 169 149
3 151 170 150
3 152 171 151
3 153 172 152
3 154 173 153
3 155 174 154
3 156 175 155
3 157 176 156
3 158 177 157
3 159 178 158
2 160 159
3 161 180 160
3 162 181 161
3 163 182 162
3 164 183 163
3 165 184 164
3 166 185 165
3 167 186 166
3 168 187 167
3 169 188 168
3 170 189 169
3 171 190 170
3 172 191 171
3 173 192 172
3 174 193 173
3 175 194 174
3 176 195 175
3 177 196 176
3 178 197 177
3 179 198 178
2 180 179
3 181 200 180
3 182 201 181
3 183 202 182
3 184 203 183
3 185 204 184
3 186 205 185
3 187 206 186
3 188 207 187
3 189 208 188
3 190 209 189
3 191 210 190
3 192 211 191
3 193 212 192
3 194 213 193
3 195 214 194
3 196 215 195
3 197 216 196
3 198 217 197
3 199 218 198
2 200 199
3 201 220 200
3 202 221 201
3 203 222 202
3 204 223 203
3 205 224 204
3 206 225 205
3 207 226 206
3 208 227 207
3 209 228 208
3 210 229 209
3 211 230 210
3 212 231 211
3 213 232 212
3 214 233 213
3 215 234 214
3 216 235 215
3 217 236 216
3 218 237 217
3 219 238 218
2 220 219
3 221 240 220
3 222 241 221
3 223 242 222
3 224 243 223
3 225 244 224
3 226 245 225
3 227 246 226
3 228 247 227
3 229 248 228
3 230 249 229
3 231 250 230
3 232 251 231
3 233 252 232
3 234 253 233
3 235 254 234
3 236 255 235
3 237 256 236
3 238 257 237
3 239 258 238
2 240 239
3 241 260 240
3 242 261 241
3 243 262 242
3 244 263 243
3 245 264 244
3 246 265 245
3 247 266 246
3 248 267 247
3 249 268 248
3 250 269 249
3 251 270 250
3 252 271 251
3 253 272 252
3 254 273 253
3 255 274 254
3 256 275 255
3 257 276 256
3 258 277 257
3 259 278 258
2 260 259
3 261 280 260
3 262 281 261
3 263 282 262
3 264 283 263
3 265 284 264
3 266 285 265
3 267 286 266
3 268 287 267
3 269 288 268
3 270 289 269
3 271 290 270
3 272 291 271
3 273 292 272
3 274 293 273
3 275 294 274
3 276 295 275
3 277 296 276
3 278 297 277
3 279 298 278
2 280 279
3 281 300 280
3 282 301 281
3 283 302 282
3 284 303 283
3 285 304 284
3 286 305 285
3 287 306 286
3 288 307 287
3 289 308 288
3 290 309 289
3 291 310 290
3 292 311 291
3 293 312 292
3 294 313 293
3 295 314 294
3 296 315 295
3 297 316 296
3 298 317 297
3 299 318 298
2 300 299
3 301 320 300
3 302 321 301
3 303 322 302
3 304 323 303
3 305 324 304
3 306 325 305
3 307 326 306
3 308 327 307
3 309 328 308
3 310 329 309
3 311 330 310
3 312 331 311
3 313 332 312
3 314 333 313
3 315 334 314
3 316 335 315
3 317 336 316
3 318 337 317
3 319 338 318
2 320 319
3 321 340 320
3 322 341 321
3 323 342 322
3 324 343 323
3 325 344 324
3 326 345 325
3 327 346 326
3 328 347 327
3 329 348 328
3 330 349 329
3 331 350 330
3 332 351 331
3 333 352 332
3 334 353 333
3 335 354 334
3 336 355 335
3 337 356 336
3 338 357 337
3 339 358 338
2 340 339
3 341 360 340
3 342 361 341
3 343 362 342
3 344 363 343
3 345 364 344
3 346 365 345
3 347 366 346
3 348 367 347
3 349 368 348
3 350 369 349
3 351 370 350
3 352 371 351
3 353 372 352
3 354 373 353
3 355 374 354
3 356 375 355
3 357 376 356
3 358 377 357
3 359 378 358
2 360 359
3 361 380 360
3 362 381 361
3 363 382 362
3 364 383 363
3 365 384 364
3 366 385 365
3 367 386 366
3 368 387 367
3 369 388 368
3 370 389 369
3 371 390 370
3 372 391 371
3 373 392 372
3 374 393 373
3 375 394 374
3 376 395 375
3 377 396 376
3 378 397 377
3 379 398 378
2 380 379
2 400 380
2 401 381
2 402 382
2 403 383
2 404 384
2 405 385
2 406 386
2 407 387
2 408 388
2 409 389
2 410 390
2 411 391
2 412 392
2 413 393
2 414 394
2 415 395
2 416 396
2 417 397
2 418 398
1  399
8
1 0 0 1 1 0 1 0
8
0.4642179824340004 0.5357820175659996 0.35365860848606523 0.6463413915139347 0.27855447575307285 0.7214455242469272 0.3405916446114369 0.6594083553885631
8
0 1 1 0 0 1 0 1
8
1 0 0 1 0 1 0 1
8
0 1 0 1 1 0 1 0
8
0 1 0 1 1 0 0 1
8
1 0 1 0 0 1 0 1
8
0 1 1 0 0 1 0 1
8
1 0 1 0 1 0 1 0
8
0 1 1 0 0 1 0 1
8
0 1 1 0 0 1 0 1
8
1 0 0 1 1 0 1 0
8
0 1 1 0 0 1 0 1
8
0 1 1 0 0 1 0 1
8
1 0 1 0 0 1 0 1
8
0 1 0 1 1 0 1 0
8
1 0 0 1 0 1 1 0
8
0 1 0 1 1 0 0 1
8
0 1 0 1 0 1 0 1
4
1 0 0 1
8
0 1 0 1 0 1 0 1
8
1 0 1 0 1 0 0 1
8
0 1 0 1 1 0 1 0
8
0 1 0 1 1 0 1 0
8
0 1 1 0 1 0 1 0
8
0 1 1 0 0 1 1 0
8
0 1 0 1 1 0 1 0
8
1 0 1 0 0 1 1 0
8
0 1 1 0 0 1 0 1
8
0 1 1 0 1 0 1 0
8
0 1 1 0 0 1 0 1
8
0 1 1 0 0 1 0 1
8
1 0 0 1 0 1 1 0
8
1 0 1 0 0 1 1 0
8
1 0 0 1 0 1 1 0
8
0 1 1 0 1 0 0 1
8
0.28401172401171154 0.7159882759882884 0.7553998705988472 0.24460012940115286 0.5651736962258964 0.4348263037741036 0.5249935210650065 0.47500647893499354
8
1 0 1 0 1 0 0 1
8
1 0 0 1 0 1 1 0
4
1 0 0 1
8
0 1 0 1 1 0 1 0
8
1 0 0 1 0 1 1 0
8
1 0 1 0 1 0 0 1
8
0.5067210899976569 0.4932789100023432 0.5048953690388217 0.4951046309611783 0.3302080166206414 0.6697919833793585 0.9522207976332528 0.04777920236674711
8
0.38518607745972805 0.6148139225402719 0.4592980629090988 0.5407019370909012 0.6122031457288344 0.38779685427116567 0.5165562052128485 0.4834437947871515
8
1 0 1 0 0 1 1 0
8
1 0 1 0 0 1 0 1
8
1 0 0 1 0 1 1 0
8
1 0 0 1 1 0 1 0
8
1 0 1 0 0 1 0 1
8
1 0 1 0 0 1 0 1
8
0 1 1 0 1 0 0 1
8
0 1 1 0 1 0 0 1
8
1 0 1 0 0 1 1 0
8
1 0 1 0 0 1 0 1
8
0 1 1 0 1 0 1 0
8
1 0 0 1 0 1 1 0
8
0 1 0 1 1 0 1 0
8
0 1 1 0 0 1 0 1
4
1 0 0 1
8
1 0 1 0 0 1 0 1
8
1 0 1 0 0 1 1 0
8
0 1 1 0 0 1 1 0
8
1 0 1 0 1 0 1 0
8
1 0 0 1 0 1 1 0
8
1 0 0 1 0 1 1 0
8
0.4101050517727381 0.5898949482272619 0.6776948912470325 0.32230510875296753 0.5676659948741715 0.43233400512582854 0.17404560401467814 0.8259543959853219
8
0.39243204067796206 0.607567959322038 0.6262960404743044 0.3737039595256956 0.5551053058702647 0.4448946941297352 0.8119277656285268 0.1880722343714733
8
1 0 1 0 1 0 0 1
8
0 1 0 1 0 1 0 1
8
0.2095802092043867 0.7904197907956133 0.12008182137930938 0.8799181786206907 0.8031238708832489 0.1968761291167511 0.16073838688823677 0.8392616131117632
8
1 0 0 1 0 1 1 0
8
0 1 1 0 0 1 0 1
8
0 1 1 0 1 0 1 0
8
0 1 1 0 1 0 1 0
8
0.16014952830981846 0.8398504716901816 0.771558109628407 0.228441890371593 0.03438977079685845 0.9656102292031415 0.6478335190216393 0.35216648097836073
8
1 0 1 0 1 0 0 1
8
0 1 0 1 1 0 1 0
8
0 1 0 1 0 1 0 1
4
0 1 1 0
8
0.22160408193909553 0.7783959180609045 0.4320620570659071 0.5679379429340928 0.18477829321300088 0.8152217067869991 0.5804338538115753 0.41956614618842464
8
0 1 1 0 0 1 0 1
8
1 0 1 0 1 0 0 1
8
1 0 0 1 0 1 0 1
8
1 0 0 1 0 1 0 1
8
1 0 1 0 0 1 1 0
8
0 1 1 0 1 0 1 0
8
0 1 0 1 0 1 1 0
8
1 0 1 0 0 1 0 1
8
1 0 1 0 1 0 1 0
8
0 1 1 0 1 0 0 1
8
1 0 0 1 0 1 0 1
8
0.09014365007853865 0.9098563499214614 0.47932544333320226 0.5206745566667977 0.7500572725129878 0.24994272748701213 0.8711545427002443 0.12884545729975577
8
1 0 0 1 1 0 0 1
8
0 1 1 0 1 0 1 0
8
1 0 1 0 0 1 1 0
8
0.4659852881506645 0.5340147118493356 0.09868569365801119 0.9013143063419888 0.5079673596070544 0.49203264039294564 0.927740310084382 0.07225968991561799
8
0.9042402988517875 0.09575970114821247 0.2956678773067993 0.7043321226932008 0.29600838620101566 0.7039916137989843 0.40554514555242965 0.5944548544475703
8
1 0 0 1 0 1 1 0
4
0 1 0 1
8
0 1 0 1 1 0 0 1
8
0 1 1 0 0 1 1 0
8
0.18906784162510348 0.8109321583748965 0.2135082170166358 0.7864917829833642 0.5203468231050549 0.47965317689494513 0.544184939206564 0.45581506079343614
8
0 1 0 1 0 1 1 0
8
1 0 0 1 1 0 1 0
8
1 0 0 1 0 1 0 1
8
0 1 0 1 1 0 0 1
8
0 1 1 0 0 1 1 0
8
1 0 0 1 0 1 1 0
8
0 1 0 1 0 1 1 0
8
0 1 0 1 0 1 0 1
8
1 0 0 1 0 1 1 0
8
0 1 1 0 0 1 0 1
8
0 1 0 1 1 0 1 0
8
0 1 1 0 0 1 1 0
8
0 1 1 0 1 0 0 1
8
0 1 1 0 1 0 0 1
8
1 0 1 0 0 1 0 1
8
1 0 0 1 0 1 0 1
4
1 0 1 0
8
1 0 0 1 1 0 1 0
8
0 1 0 1 0 1 1 0
8
0 1 1 0 1 0 1 0
8
0 1 1 0 1 0 1 0
8
1 0 1 0 1 0 0 1
8
1 0 0 1 0 1 1 0
8
0.4225026713452448 0.5774973286547552 0.9069695757875771 0.09303042421242307 0.48364416573436236 0.5163558342656376 0.41865174197516347 0.5813482580248365
8
1 0 1 0 1 0 1 0
8
0 1 0 1 1 0 0 1
8
0 1 1 0 1 0 1 0
8
0 1 1 0 0 1 1 0
8
0 1 0 1 1 0 0 1
8
0 1 1 0 1 0 1 0
8
0 1 0 1 1 0 1 0
8
1 0 0 1 0 1 1 0
8
0 1 1 0 0 1 1 0
8
0.9307672989059416 0.06923270109405848 0.9185746043216391 0.08142539567836098 0.571007021434749 0.42899297856525104 0.16070287132320843 0.8392971286767916
8
1 0 0 1 0 1 0 1
8
1 0 0 1 0 1 0 1
4
0 1 1 0
8
0 1 1 0 0 1 1 0
8
1 0 1 0 1 0 1 0
8
0 1 0 1 0 1 0 1
8
0 1 0 1 1 0 0 1
8
1 0 0 1 1 0 1 0
8
0 1 1 0 0 1 0 1
8
0.5861486115480944 0.4138513884519056 0.2696331997761634 0.7303668002238367 0.608889550737584 0.39111044926241606 0.5887039102491657 0.41129608975083426
8
0 1 1 0 0 1 1 0
8
1 0 1 0 0 1 0 1
8
1 0 0 1 0 1 0 1
8
1 0 0 1 1 0 0 1
8
0.5845147204027638 0.4154852795972362 0.5173651805467518 0.48263481945324826 0.4379467370972056 0.5620532629027944 0.3414519323110098 0.6585480676889902
8
1 0 0 1 1 0 1 0
8
0 1 0 1 0 1 1 0
8
0 1 0 1 0 1 0 1
8
0 1 1 0 0 1 0 1
8
1 0 1 0 1 0 0 1
8
1 0 1 0 0 1 1 0
8
0 1 1 0 1 0 1 0
4
0 1 1 0
8
0 1 0 1 0 1 0 1
8
1 0 1 0 1 0 1 0
8
1 0 1 0 0 1 1 0
8
0 1 0 1 1 0 1 0
8
0 1 1 0 0 1 0 1
8
1 0 1 0 1 0 0 1
8
0 1 1 0 1 0 1 0
8
1 0 1 0 0 1 0 1
8
1 0 1 0 0 1 0 1
8
1 0 1 0 1 0 0 1
8
0 1 0 1 1 0 0 1
8
0 1 0 1 0 1 1 0
8
1 0 0 1 1 0 1 0
8
0 1 1 0 0 1 0 1
8
1 0 1 0 0 1 0 1
8
1 0 1 0 1 0 0 1
8
1 0 0 1 0 1 1 0
8
0 1 1 0 0 1 0 1
8
0.8150135184412514 0.18498648155874864 0.09998704791300299 0.900012952086997 0.4703544688110634 0.5296455311889365 0.613889549438123 0.38611045056187693
4
1 0 1 0
8
1 0 1 0 0 1 1 0
8
0 1 1 0 0 1 1 0
8
1 0 0 1 0 1 0 1
8
1 0 1 0 1 0 1 0
8
1 0 0 1 0 1 0 1
8
1 0 0 1 0 1 0 1
8
1 0 1 0 0 1 0 1
8
0 1 1 0 1 0 0 1
8
1 0 1 0 0 1 1 0
8
1 0 1 0 0 1 0 1
8
1 0 1 0 0 1 0 1
8
1 0 1 0 0 1 0 1
8
0 1 0 1 0 1 1 0
8
0 1 1 0 0 1 0 1
8
1 0 0 1 1 0 1 0
8
1 0 0 1 0 1 0 1
8
0 1 0 1 1 0 1 0
8
1 0 1 0 1 0 1 0
8
1 0 0 1 1 0 1 0
4
0 1 1 0
8
0 1 1 0 1 0 1 0
8
0 1 1 0 1 0 1 0
8
0 1 1 0 0 1 0 1
8
0 1 1 0 0 1 0 1
8
0 1 0 1 0 1 1 0
8
1 0 0 1 1 0 1 0
8
1 0 0 1 0 1 1 0
8
1 0 0 1 1 0 1 0
8
0 1 0 1 0 1 1 0
8
1 0 0 1 1 0 0 1
8
1 0 0 1 0 1 1 0
8
1 0 1 0 1 0 1 0
8
1 0 0 1 0 1 1 0
8
0 1 0 1 0 1 0 1
8
1 0 1 0 1 0 1 0
8
0 1 0 1 1 0 0 1
8
0 1 1 0 0 1 0 1
8
1 0 1 0 1 0 1 0
8
1 0 1 0 1 0 1 0
4
1 0 1 0
8
0 1 0 1 0 1 1 0
8
1 0 0 1 1 0 1 0
8
0 1 1 0 1 0 0 1
8
1 0 0 1 1 0 0 1
8
1 0 0 1 1 0 1 0
8
0.47805077541043783 0.5219492245895622 0.6048688510987449 0.3951311489012551 0.09188736342447301 0.908112636575527 0.28665008467569875 0.7133499153243014
8
0 1 1 0 0 1 1 0
8
0.4285732927021943 0.5714267072978058 0.05867015234639357 0.9413298476536064 0.38588087102761404 0.6141191289723861 0.4754895330442284 0.5245104669557716
8
0.7814403689167974 0.2185596310832026 0.6167751018830531 0.383224898116947 0.46166696207064073 0.5383330379293594 0.5210472646799728 0.47895273532002713
8
0.22466259979596254 0.7753374002040374 0.6827522687436107 0.31724773125638933 0.7667219108844836 0.23327808911551637 0.06663782880042213 0.9333621711995779
8
1 0 1 0 1 0 0 1
8
0 1 0 1 1 0 1 0
8
1 0 0 1 0 1 1 0
8
1 0 0 1 1 0 0 1
8
0 1 0 1 0 1 1 0
8
0 1 0 1 0 1 1 0
8
0 1 0 1 1 0 0 1
8
0 1 1 0 1 0 1 0
8
0 1 0 1 0 1 0 1
4
0.5058219000643015 0.4941780999356985 0.42727547134045185 0.5727245286595481
8
1 0 1 0 0 1 1 0
8
0 1 0 1 0 1 1 0
8
1 0 0 1 1 0 1 0
8
1 0 0 1 1 0 1 0
8
0 1 1 0 1 0 0 1
8
0.3743957909805551 0.6256042090194449 0.46652458944542874 0.5334754105545713 0.6876257537562676 0.3123742462437325 0.2606218226483185 0.7393781773516814
8
1 0 0 1 1 0 0 1
8
0 1 0 1 1 0 0 1
8
0.5453089066315423 0.45469109336845764 0.5373953205008122 0.4626046794991879 0.908854449966235 0.09114555003376497 0.47417213025872634 0.5258278697412737
8
0.6839608626582784 0.3160391373417216 0.8261103721768972 0.17388962782310274 0.5787993588589794 0.42120064114102057 0.9779578615049874 0.022042138495012596
8
1 0 1 0 0 1 0 1
8
1 0 0 1 0 1 0 1
8
1 0 0 1 1 0 0 1
8
1 0 1 0 0 1 0 1
8
0 1 0 1 1 0 1 0
8
0 1 0 1 0 1 0 1
8
1 0 1 0 1 0 1 0
8
0 1 1 0 0 1 0 1
8
0 1 1 0 1 0 1 0
4
1 0 1 0
8
0 1 0 1 0 1 0 1
8
0.8184341320437545 0.18156586795624555 0.2625375424808093 0.7374624575191907 0.2979196376475405 0.7020803623524595 0.4727746867843774 0.5272253132156227
8
0 1 1 0 1 0 0 1
8
1 0 1 0 0 1 0 1
8
1 0 0 1 0 1 1 0
8
1 0 1 0 0 1 1 0
8
1 0 0 1 0 1 0 1
8
1 0 0 1 1 0 1 0
8
1 0 1 0 0 1 1 0
8
0 1 1 0 0 1 0 1
8
0 1 0 1 0 1 0 1
8
0 1 1 0 0 1 0 1
8
0 1 1 0 1 0 0 1
8
0.1965799208220534 0.8034200791779466 0.30515799811433575 0.6948420018856643 0.5996970519957712 0.4003029480042289 0.7162002809616701 0.28379971903832996
8
1 0 1 0 1 0 0 1
8
1 0 0 1 1 0 1 0
8
1 0 0 1 0 1 0 1
8
1 0 1 0 1 0 1 0
8
0 1 1 0 0 1 0 1
4
1 0 1 0
8
1 0 1 0 1 0 0 1
8
0 1 1 0 0 1 1 0
8
1 0 0 1 0 1 1 0
8
0.49085647234585544 0.5091435276541445 0.7260030147724962 0.2739969852275039 0.36381275499633736 0.6361872450036626 0.8646562342432607 0.13534376575673931
8
1 0 0 1 0 1 1 0
8
1 0 0 1 0 1 0 1
8
0 1 0 1 1 0 0 1
8
0.2833790329863245 0.7166209670136755 0.4877094566397589 0.512290543360241 0.3383469545535705 0.6616530454464296 0.4569630011079711 0.5430369988920289
8
1 0 0 1 1 0 0 1
8
1 0 0 1 1 0 1 0
8
1 0 0 1 1 0 1 0
8
0 1 1 0 0 1 1 0
8
1 0 1 0 1 0 1 0
8
1 0 1 0 1 0 0 1
8
1 0 0 1 0 1 1 0
8
1 0 0 1 1 0 1 0
8
1 0 0 1 1 0 0 1
8
0 1 0 1 1 0 0 1
8
0 1 0 1 0 1 0 1
4
0 1 1 0
8
0 1 0 1 1 0 0 1
8
0.3252990156450702 0.6747009843549299 0.9865935711590393 0.013406428840960709 0.4231578565931056 0.5768421434068943 0.6256118085687719 0.37438819143122815
8
1 0 0 1 0 1 0 1
8
0 1 0 1 1 0 1 0
8
0 1 0 1 1 0 1 0
8
0 1 1 0 1 0 0 1
8
0 1 1 0 0 1 1 0
8
0 1 0 1 1 0 0 1
8
0.44912287397033723 0.5508771260296628 0.972462865985521 0.027537134014478968 0.6574667704210189 0.34253322957898114 0.8544522008045353 0.14554779919546462
8
0 1 1 0 1 0 0 1
8
0 1 1 0 1 0 0 1
8
0 1 0 1 0 1 0 1
8
0 1 0 1 0 1 0 1
8
1 0 0 1 1 0 1 0
8
0.48059521722900456 0.5194047827709954 0.7394300810932665 0.2605699189067334 0.7565023767230528 0.24349762327694713 0.7941740101336519 0.20582598986634815
8
0 1 0 1 1 0 1 0
8
0 1 0 1 1 0 1 0
8
1 0 1 0 1 0 1 0
8
0 1 0 1 0 1 1 0
4
0 1 1 0
8
0 1 1 0 1 0 0 1
8
0 1 0 1 1 0 0 1
8
0 1 1 0 0 1 0 1
8
1 0 1 0 1 0 1 0
8
0 1 0 1 0 1 0 1
8
0 1 1 0 1 0 1 0
8
0.3293360691084636 0.6706639308915364 0.879802536794903 0.12019746320509711 0.4556317100831887 0.5443682899168112 0.36220297640593574 0.6377970235940642
8
1 0 1 0 0 1 0 1
8
1 0 0 1 1 0 0 1
8
1 0 0 1 1 0 0 1
8
0 1 1 0 0 1 0 1
8
1 0 0 1 1 0 0 1
8
0 1 0 1 1 0 0 1
8
1 0 1 0 0 1 0 1
8
0 1 1 0 1 0 0 1
8
0 1 0 1 1 0 1 0
8
1 0 1 0 1 0 0 1
8
1 0 1 0 1 0 0 1
8
1 0 0 1 0 1 0 1
4
0 1 1 0
8
0 1 0 1 0 1 1 0
8
1 0 0 1 0 1 1 0
8
1 0 1 0 1 0 1 0
8
1 0 1 0 1 0 1 0
8
1 0 1 0 0 1 0 1
8
0 1 1 0 0 1 1 0
8
0 1 1 0 1 0 1 0
8
0 1 0 1 0 1 0 1
8
1 0 0 1 0 1 1 0
8
1 0 1 0 1 0 0 1
8
0 1 1 0 0 1 0 1
8
0 1 0 1 1 0 0 1
8
0.6151317776111931 0.38486822238880697 0.7184603856360736 0.2815396143639263 0.6117162329428498 0.3882837670571501 0.6992047977972374 0.30079520220276246
8
1 0 1 0 0 1 1 0
8
1 0 0 1 1 0 1 0
8
1 0 0 1 0 1 0 1
8
1 0 1 0 1 0 1 0
8
0 1 1 0 1 0 0 1
8
0 1 1 0 0 1 1 0
4
0 1 0 1
8
1 0 1 0 0 1 0 1
8
0.9441873640521669 0.055812635947833186 0.2597782798265818 0.7402217201734183 0.4218794407294309 0.578120559270569 0.35151327969689433 0.6484867203031057
8
1 0 1 0 0 1 0 1
8
0 1 1 0 1 0 1 0
8
1 0 1 0 0 1 1 0
8
0 1 0 1 0 1 0 1
8
0.7550154056781772 0.24498459432182282 0.731860714753616 0.268139285246384 0.5847611668110625 0.4152388331889375 0.5091274284352838 0.49087257156471614
8
0.34648034189924726 0.6535196581007527 0.3910687690543244 0.6089312309456756 0.9108709943772918 0.08912900562270824 0.4362345670933549 0.5637654329066452
8
1 0 0 1 1 0 0 1
8
0 1 0 1 0 1 0 1
8
0.23766390794836717 0.7623360920516328 0.7946616262206868 0.20533837377931316 0.7051417179445303 0.2948582820554697 0.5971468815426668 0.4028531184573331
8
0 1 0 1 0 1 0 1
8
1 0 0 1 1 0 1 0
8
1 0 1 0 1 0 1 0
8
1 0 1 0 1 0 0 1
8
0.46322268083158485 0.5367773191684151 0.6448610848737861 0.3551389151262139 0.39874068327493806 0.6012593167250619 0.23916365795885605 0.760836342041144
8
0 1 0 1 0 1 0 1
8
1 0 1 0 1 0 0 1
8
1 0 1 0 0 1 1 0
4
1 0 0 1
4
1 0 0 1
4
0 1 0 1
4
0 1 0 1
4
0 1 0 1
4
1 0 1 0
4
1 0 1 0
4
1 0 1 0
4
1 0 1 0
4
1 0 1 0
4
0 1 1 0
4
0 1 0 1
4
1 0 0 1
4
0 1 1 0
4
0 1 1 0
4
1 0 1 0
4
1 0 0 1
4
0 1 1 0
4
1 0 1 0
4
1 0 0 1
2
1 0
